========================================================== 
File name: C:\DEGR\assets\definitions\MSRCPSP_Gen\500_20_512_5_C.def
Creation date: Sat May 06 09:15:51 CEST 2023
Website: http://imopse.ii.pwr.edu.pl/ 
Reference: 
Myszkowski P. B., Skowronski M. E., Olech L., Oslizlo K., 
Hybrid Ant Colony Optimization in solving Multi-Skill Resource-Constrained Project Scheduling Problem, 
Soft Computing, DOI: DOI 10.1007/s00500-014-1455-x 
========================================================== 
General characteristics: 
Tasks: 500
Resources: 20
Precedence relations: 509
Number of skill types: 5
========================================================== 
ResourceID 	 Salary 	 Skills 
1	 	 	22.1	 	 Q1: 3 	  Q4: 3 	 
2	 	 	52.1	 	 Q2: 2 	 
3	 	 	31.2	 	 Q1: 1 	 
4	 	 	24.2	 	 Q3: 2 	 
5	 	 	32.6	 	 Q2: 2 	  Q0: 3 	 
6	 	 	79.0	 	 Q3: 3 	  Q1: 0 	 
7	 	 	47.9	 	 Q1: 0 	  Q2: 2 	  Q0: 3 	  Q3: 1 	 
8	 	 	77.8	 	 Q0: 1 	  Q4: 3 	 
9	 	 	68.9	 	 Q2: 2 	  Q3: 3 	 
10	 	 	37.6	 	 Q1: 1 	  Q2: 1 	  Q3: 3 	 
11	 	 	45.6	 	 Q2: 3 	  Q4: 0 	  Q0: 0 	  Q3: 3 	 
12	 	 	67.3	 	 Q3: 3 	  Q0: 3 	  Q1: 3 	  Q2: 2 	 
13	 	 	15.5	 	 Q0: 3 	  Q4: 1 	  Q2: 3 	 
14	 	 	79.0	 	 Q3: 0 	 
15	 	 	21.0	 	 Q0: 0 	  Q3: 2 	  Q1: 3 	 
16	 	 	81.4	 	 Q0: 2 	  Q3: 1 	  Q4: 3 	  Q2: 1 	 
17	 	 	98.9	 	 Q1: 3 	 
18	 	 	28.5	 	 Q1: 0 	  Q3: 2 	  Q4: 0 	 
19	 	 	47.3	 	 Q0: 0 	  Q4: 0 	  Q2: 2 	  Q3: 1 	 
20	 	 	25.6	 	 Q1: 1 	  Q4: 0 	  Q3: 1 	 
========================================================== 
TaskID 	 Duration 	 Skill 	 Predecessor IDs 
1	26	Q1:	0
2	12	Q2:	3
3	21	Q0:	1
4	26	Q2:	1
5	34	Q2:	1
6	17	Q2:	2
7	18	Q3:	0
8	25	Q4:	3
9	25	Q2:	2
10	37	Q3:	0
11	19	Q1:	3
12	32	Q0:	2
13	24	Q3:	2
14	23	Q1:	1
15	17	Q0:	2
16	9	Q2:	3
17	15	Q4:	0
18	23	Q0:	3
19	11	Q2:	3
20	21	Q0:	0
21	14	Q3:	2
22	37	Q0:	1	6
23	28	Q4:	1
24	40	Q0:	2
25	40	Q2:	2
26	26	Q0:	1
27	33	Q3:	0
28	24	Q0:	2
29	39	Q4:	1
30	9	Q0:	2
31	17	Q0:	1
32	19	Q4:	3
33	20	Q4:	3
34	28	Q0:	2	32
35	32	Q4:	0
36	40	Q0:	3
37	23	Q4:	3	21
38	21	Q0:	1
39	20	Q2:	3	20
40	24	Q3:	0
41	25	Q3:	0
42	20	Q4:	0
43	15	Q1:	0
44	9	Q4:	0
45	16	Q2:	2
46	18	Q2:	3
47	36	Q4:	1
48	10	Q1:	0
49	12	Q2:	2
50	40	Q0:	0
51	32	Q0:	2	13
52	17	Q2:	3
53	34	Q2:	2
54	34	Q4:	3
55	32	Q3:	0	16
56	12	Q1:	3
57	34	Q2:	2
58	23	Q2:	1
59	35	Q1:	1	24	58
60	19	Q0:	1
61	20	Q4:	0
62	37	Q0:	0
63	16	Q0:	0
64	40	Q4:	3
65	11	Q2:	2
66	13	Q4:	0
67	28	Q3:	0
68	39	Q0:	1	24
69	22	Q0:	3
70	15	Q1:	3
71	27	Q0:	0	13
72	15	Q3:	0
73	30	Q4:	1
74	20	Q0:	0
75	24	Q3:	1
76	39	Q0:	2	4
77	13	Q2:	2	5
78	40	Q3:	1
79	16	Q0:	1
80	17	Q4:	0	73	44
81	9	Q4:	3
82	15	Q3:	1
83	38	Q4:	3
84	28	Q2:	3
85	28	Q3:	2
86	26	Q4:	0
87	40	Q1:	1
88	28	Q1:	1	40
89	37	Q0:	0
90	29	Q1:	0	39
91	31	Q1:	3	63
92	36	Q4:	3
93	30	Q0:	3	44
94	36	Q3:	2
95	40	Q2:	1	64
96	40	Q2:	2
97	15	Q0:	2
98	11	Q1:	3
99	36	Q0:	1
100	13	Q1:	1
101	19	Q3:	3
102	39	Q0:	2	47
103	26	Q4:	3
104	25	Q3:	1
105	28	Q3:	3
106	38	Q0:	2	57
107	28	Q1:	1
108	18	Q3:	3
109	13	Q3:	1
110	14	Q1:	1
111	36	Q0:	3
112	39	Q4:	0	7
113	10	Q1:	3
114	11	Q3:	0	90	113
115	30	Q4:	3
116	29	Q4:	3	79	107
117	16	Q4:	0	106
118	28	Q1:	3
119	19	Q2:	3
120	10	Q3:	1	43
121	35	Q0:	0
122	23	Q3:	0	118
123	11	Q4:	1	75
124	27	Q3:	2	90
125	36	Q4:	3
126	37	Q3:	2	1
127	16	Q4:	1
128	15	Q0:	3	59
129	37	Q1:	3	12
130	19	Q4:	0
131	9	Q3:	0
132	26	Q2:	3	69
133	23	Q1:	1
134	34	Q1:	1	2
135	24	Q1:	1
136	22	Q3:	2
137	25	Q2:	3
138	38	Q0:	3	121	10
139	29	Q2:	2
140	13	Q0:	2	37	107
141	26	Q1:	0
142	37	Q2:	2	79
143	9	Q4:	3	39
144	24	Q4:	1
145	40	Q4:	3
146	24	Q0:	1	131
147	35	Q1:	1	49
148	35	Q2:	1	30
149	21	Q0:	1
150	38	Q3:	0
151	26	Q1:	3
152	36	Q3:	0	145
153	39	Q0:	2	152
154	23	Q0:	0
155	38	Q3:	3
156	20	Q4:	1
157	36	Q1:	1	99
158	23	Q4:	3	81
159	20	Q3:	3
160	30	Q1:	3
161	21	Q1:	1	8
162	25	Q0:	3
163	25	Q3:	3
164	36	Q4:	1
165	33	Q0:	2
166	21	Q2:	2
167	27	Q3:	3	14
168	10	Q1:	0	136
169	27	Q2:	3
170	16	Q0:	0	74
171	29	Q2:	1
172	27	Q0:	0	165
173	15	Q3:	2
174	21	Q0:	1
175	16	Q4:	0	75
176	40	Q3:	0
177	16	Q1:	3	94
178	26	Q1:	0	111	121	1
179	23	Q2:	1	40
180	13	Q4:	3	146
181	15	Q0:	2
182	28	Q4:	3
183	33	Q3:	1	55	174	104
184	19	Q1:	3	34	123
185	10	Q3:	0
186	19	Q0:	3	12	19
187	11	Q2:	2
188	14	Q3:	2	32
189	33	Q1:	3
190	36	Q2:	3	98
191	36	Q0:	3
192	16	Q4:	1
193	37	Q0:	3
194	35	Q3:	2
195	27	Q2:	1
196	31	Q2:	2
197	18	Q0:	0
198	35	Q2:	2	122
199	36	Q2:	3	143	7
200	30	Q2:	2	129	1
201	36	Q4:	3
202	35	Q2:	2	175
203	20	Q4:	3
204	26	Q1:	3
205	34	Q4:	1	65	68
206	39	Q1:	1	27
207	14	Q1:	3	145
208	36	Q3:	0
209	25	Q3:	1
210	30	Q3:	3
211	33	Q0:	3
212	25	Q3:	1	135
213	22	Q2:	3
214	40	Q0:	3	59	110
215	17	Q3:	2	190	38
216	38	Q3:	3
217	15	Q0:	1
218	21	Q1:	0
219	10	Q2:	3
220	17	Q1:	3
221	17	Q3:	3
222	38	Q4:	3
223	16	Q3:	0	12	163
224	14	Q0:	0	98	3	35
225	22	Q4:	3
226	33	Q4:	0
227	37	Q2:	2	144
228	19	Q0:	1	195
229	28	Q2:	2
230	31	Q0:	2	216
231	38	Q3:	0
232	18	Q3:	2	217
233	20	Q4:	1	191	94
234	14	Q1:	3
235	20	Q4:	0
236	13	Q0:	2
237	26	Q2:	2	77	164	215
238	19	Q0:	0	178
239	25	Q1:	3	132	14	12
240	40	Q1:	0	234
241	9	Q0:	3
242	17	Q0:	1
243	9	Q4:	3	71
244	30	Q0:	1	122
245	19	Q0:	0	97	108	14
246	37	Q0:	3	98
247	28	Q0:	1	21
248	35	Q0:	1	138
249	14	Q3:	3	238	78
250	40	Q4:	0	88	87
251	12	Q3:	1	76
252	22	Q4:	1	12
253	26	Q3:	2
254	30	Q1:	0	152	113
255	14	Q3:	3	222	231	116
256	29	Q4:	0
257	18	Q2:	3	52
258	17	Q0:	3
259	38	Q4:	3
260	21	Q0:	2	243	112
261	28	Q2:	3	84
262	30	Q2:	3
263	18	Q2:	3	107	155
264	15	Q3:	3	205	222	75
265	21	Q2:	1
266	39	Q1:	0	4	163
267	10	Q2:	2	182
268	9	Q1:	3	258	187
269	40	Q4:	3
270	37	Q0:	2	6	18
271	18	Q4:	0	80
272	31	Q1:	1	186	217	99
273	39	Q1:	3
274	14	Q2:	1	159
275	38	Q0:	3	216
276	12	Q3:	0	181
277	26	Q1:	0
278	12	Q2:	1	145
279	37	Q4:	0	180	208	123
280	30	Q4:	3
281	33	Q0:	3	193	62
282	20	Q3:	3
283	33	Q4:	0	275
284	28	Q3:	3
285	9	Q4:	3	155
286	26	Q0:	0	114	177	87
287	39	Q2:	1	138	151
288	30	Q4:	1	21
289	21	Q1:	0	219
290	13	Q2:	2	145
291	17	Q0:	3	259
292	18	Q3:	3	117
293	28	Q3:	2	76
294	40	Q4:	0	113	245
295	33	Q3:	0	116	185	113
296	39	Q1:	3	178	219
297	13	Q3:	1
298	9	Q1:	1	20	82
299	18	Q4:	1	276
300	11	Q4:	3	286	257
301	11	Q0:	0	210	83
302	32	Q0:	1
303	21	Q1:	3	67
304	25	Q0:	0	200
305	40	Q1:	1	5
306	40	Q3:	0
307	14	Q3:	2	274
308	20	Q3:	1
309	14	Q3:	2
310	19	Q0:	0
311	17	Q0:	2
312	30	Q0:	2	151
313	23	Q2:	3
314	32	Q3:	2	136	233
315	13	Q0:	0	229	284
316	30	Q1:	1	259
317	35	Q4:	0	213	162
318	31	Q3:	1	155
319	39	Q1:	3	59
320	12	Q1:	3	233
321	15	Q3:	3	74	287	318	139
322	27	Q0:	2	239	21	234
323	17	Q3:	1	147	114	312	262
324	20	Q3:	2	82
325	30	Q0:	1	20	258
326	21	Q3:	1	201
327	14	Q2:	2	37	323	234
328	24	Q2:	2	322
329	23	Q3:	3
330	25	Q1:	3
331	10	Q2:	2	41
332	23	Q4:	1	297	262
333	30	Q0:	0	123
334	15	Q4:	1
335	15	Q4:	0	38
336	30	Q0:	2	23	103
337	17	Q1:	3
338	40	Q2:	3
339	12	Q3:	2	220	257	125
340	26	Q3:	0	46
341	18	Q3:	1
342	40	Q0:	2	321
343	36	Q4:	0
344	37	Q3:	2
345	25	Q2:	2	194	25	321
346	27	Q4:	0
347	9	Q3:	1	91	174
348	25	Q3:	0
349	14	Q2:	2	63	14	10
350	27	Q4:	0
351	29	Q4:	1
352	14	Q3:	1	98
353	28	Q2:	1	347	302
354	13	Q1:	3
355	11	Q2:	2	257
356	28	Q1:	1	348	197
357	10	Q4:	1	300	59	18
358	19	Q0:	1	158	337
359	16	Q1:	0	229	212	199
360	27	Q1:	3	24
361	10	Q2:	2	131	252
362	20	Q0:	1	220
363	20	Q4:	3	198
364	29	Q0:	1	77	225	180
365	9	Q0:	0	152	265	146	240
366	26	Q0:	3
367	33	Q4:	3	179
368	17	Q3:	1	76
369	26	Q1:	1	234	40
370	10	Q4:	3
371	35	Q2:	3	99
372	9	Q3:	1	48
373	28	Q1:	1	154	44	90	6	300
374	27	Q3:	1	322	261
375	36	Q4:	0	42
376	30	Q4:	1	88	119	309
377	12	Q2:	1
378	14	Q2:	2	301
379	35	Q1:	3	275
380	23	Q3:	2	339	69
381	10	Q3:	0	30	22	26	194
382	32	Q3:	2	78	273	103
383	30	Q3:	0	34	170	201	128
384	32	Q2:	1
385	16	Q0:	0	115	87	363
386	33	Q0:	0	369	265	295	6
387	29	Q4:	0
388	27	Q0:	2	364	10
389	13	Q0:	2	276	281
390	19	Q0:	0	36	41	182
391	33	Q3:	1
392	23	Q0:	0	121	265	272
393	29	Q2:	2	41
394	38	Q2:	1	350	214
395	31	Q2:	2	205
396	11	Q0:	3	168	219	151	320	183
397	29	Q1:	0	99
398	39	Q3:	1	381
399	38	Q2:	2	243	156	179
400	19	Q4:	3	47	63	335
401	26	Q0:	3	26	20	50
402	35	Q3:	0	113
403	25	Q1:	0	26
404	24	Q0:	3	342
405	20	Q0:	1	281	252	111	221
406	18	Q0:	2	350	112
407	30	Q3:	2
408	30	Q2:	1	346
409	33	Q3:	1	329	345
410	23	Q3:	0	19	47	227
411	10	Q0:	0
412	27	Q3:	3	204
413	18	Q3:	1	238
414	10	Q3:	1	407	227
415	15	Q1:	3	244	401
416	31	Q1:	0	245	212
417	12	Q4:	3	66	12	305
418	17	Q3:	0
419	15	Q3:	2	25	75	218	252	14
420	24	Q0:	0	349
421	21	Q4:	3	95
422	30	Q0:	3	10
423	15	Q1:	3	54	289	371
424	34	Q0:	3	159	145
425	32	Q0:	3	223	392	323	382
426	39	Q4:	3	336	357	274
427	14	Q1:	0	389
428	29	Q2:	2	396	406
429	25	Q3:	3	116
430	32	Q3:	2	29
431	36	Q2:	2	302
432	21	Q2:	2	62	238	6
433	28	Q4:	1
434	20	Q4:	0	210	70
435	38	Q0:	0	369	371	196	13	159
436	17	Q3:	1	368	58
437	27	Q1:	0	201	84
438	31	Q0:	1
439	28	Q0:	1
440	29	Q4:	1	65
441	10	Q2:	2	243
442	10	Q0:	2
443	33	Q2:	1	263
444	38	Q1:	3
445	36	Q3:	2	102
446	37	Q4:	0	133
447	28	Q0:	3	166
448	24	Q2:	1	40	239
449	13	Q4:	1	443	65	247
450	35	Q2:	3	180	431	394	26	36
451	39	Q3:	2	294	25	226
452	26	Q3:	1	345	424	154	277
453	28	Q3:	2	365	83	388
454	14	Q1:	3	118
455	16	Q3:	2	112	25
456	36	Q4:	3	429
457	17	Q0:	2	270	342
458	32	Q0:	1	95	430
459	25	Q1:	3	148
460	35	Q1:	0	73
461	20	Q0:	2	174
462	33	Q4:	3	125	235	57	460
463	37	Q4:	3	207	256	344
464	17	Q2:	1	95	130	455
465	28	Q2:	2	449	249	171
466	32	Q0:	1	454
467	12	Q0:	2	272
468	33	Q0:	0	127	397
469	19	Q0:	0	467
470	33	Q4:	3	221	52
471	31	Q3:	1	364
472	37	Q0:	0	432
473	30	Q2:	1	131
474	24	Q4:	1	82
475	25	Q0:	3	158	57	250	76
476	13	Q3:	2	71	24
477	14	Q2:	2	164	307	15
478	34	Q4:	0	330	32
479	19	Q1:	1	279
480	37	Q0:	1	404	251
481	21	Q1:	0	226	43
482	39	Q3:	3
483	37	Q4:	0	363	378	372	235
484	32	Q2:	3	347
485	30	Q3:	0	4
486	25	Q0:	2	88	344	337
487	31	Q2:	3	483	129	425	271
488	35	Q1:	0	357	430	339
489	36	Q1:	0	260	208	457	176
490	27	Q4:	0	479
491	37	Q3:	3	279	483	295	255
492	33	Q4:	1	329
493	19	Q3:	3	85	446
494	15	Q2:	3	72	280	389
495	18	Q3:	1	37
496	36	Q3:	1	331
497	11	Q3:	2
498	13	Q3:	3	93
499	27	Q2:	1	475	258
500	14	Q3:	2	154	296
========================================================== 